7 200
0 0 70 70 0 0 1351 0 0 0
1 164 97 29 30 49 119 90 0 70
2 66 97 28 20 110 170 90 0 147
3 160 99 26 40 287 363 90 0 47
4 70 103 34 -30 577 636 90 164 0
5 147 96 26 -20 0 1210 90 66 0
6 47 99 28 -40 392 442 90 160 0

